Problem:    
Rows:       260
Columns:    89 (72 integer, 72 binary)
Non-zeros:  974
Status:     INTEGER OPTIMAL
Objective:  value = 5.362875 (MINimum)

   No.   Row name        Activity     Lower bound   Upper bound
------ ------------    ------------- ------------- -------------
     1 r.5                   1005.36             0               
     2 r.6                  -998.425       -999.02               
     3 r.7                   5.36287             0               
     4 r.8                   2.65207      -992.218               
     5 r.9                   1005.36             0               
     6 r.10                 -997.469      -999.043               
     7 r.11                  5.36287             0               
     8 r.12                  4.27117       -992.18               
     9 r.13                  1005.36             0               
    10 r.14                 -999.835       -999.91               
    11 r.15                  5.36287             0               
    12 r.16                  2.65207      -998.807               
    13 r.17                  1005.36             0               
    14 r.18                 -997.348      -999.879               
    15 r.19                  5.36287             0               
    16 r.20                  4.27117      -998.328               
    17 r.21                  1005.36             0               
    18 r.22                 -999.405       -999.57               
    19 r.23                  5.36287             0               
    20 r.24                  2.65207       -995.92               
    21 r.25                  1005.36             0               
    22 r.26                 -999.925      -999.925               
    23 r.27                  5.36287             0               
    24 r.28                 -998.934      -998.934               
    25 r.29                  1005.36             0               
    26 r.30                 -994.637      -998.908               
    27 r.31                  5.36287             0               
    28 r.32                  5.36287      -997.195               
    29 r.33                  1005.36             0               
    30 r.34                 -995.729      -998.381               
    31 r.35                  5.36287             0               
    32 r.36                  5.36287      -996.856               
    33 r.37                        1             1             = 
    34 r.38                        1             1             = 
    35 r.39                        1             1             = 
    36 r.40                        1             1             = 
    37 r.41                        1             1             = 
    38 r.42                        1             1             = 
    39 r.43                        1             1             = 
    40 r.44                        1             1             = 
    41 r.45                        2             2               
    42 r.46                       -2         -1001               
    43 r.47                 -999.043      -999.043               
    44 r.48                     1000             2               
    45 r.49                    -1000         -1001               
    46 r.50                  2001.62       -992.18               
    47 r.51                        2             2               
    48 r.52                       -2         -1001               
    49 r.53                  -1.4096       -999.91               
    50 r.54                     1000             2               
    51 r.55                    -1000         -1001               
    52 r.56                     2000      -998.807               
    53 r.57                        2             2               
    54 r.58                       -2         -1001               
    55 r.59                 -998.923      -999.879               
    56 r.60                     1000             2               
    57 r.61                    -1000         -1001               
    58 r.62                  2001.62      -998.328               
    59 r.63                        2             2               
    60 r.64                       -2         -1001               
    61 r.65                -0.979997       -999.57               
    62 r.66                     1000             2               
    63 r.67                    -1000         -1001               
    64 r.68                     2000       -995.92               
    65 r.69                   -998.5       -999.02               
    66 r.70                  2.57697      -992.218               
    67 r.71                 0.509172       -999.02               
    68 r.72                  1001.59      -992.218               
    69 r.73                 -996.212      -998.908               
    70 r.74                  3.78808      -997.195               
    71 r.75                 -997.289      -998.908               
    72 r.76                   2.7108      -997.195               
    73 r.77                 -997.304      -998.381               
    74 r.78                  3.78808      -996.856               
    75 r.79                 -998.381      -998.381               
    76 r.80                   2.7108      -996.856               
    77 r.81                        2             2               
    78 r.82                       -2         -1001               
    79 r.83                  999.043      0.979997               
    80 r.84                     1000             2               
    81 r.85                    -1000         -1001               
    82 r.86                  1998.38       7.78163               
    83 r.87                        2             2               
    84 r.88                       -2         -1001               
    85 r.89                 -2.36627       -999.91               
    86 r.90                     1000             2               
    87 r.91                    -1000         -1001               
    88 r.92                  1998.38      -998.807               
    89 r.93                        2             2               
    90 r.94                       -2         -1001               
    91 r.95                 -999.879      -999.879               
    92 r.96                     1000             2               
    93 r.97                    -1000         -1001               
    94 r.98                     2000      -998.328               
    95 r.99                        2             2               
    96 r.100                      -2         -1001               
    97 r.101                -1.93667       -999.57               
    98 r.102                    1000             2               
    99 r.103                   -1000         -1001               
   100 r.104                 1998.38       -995.92               
   101 r.105                -997.544      -999.043               
   102 r.106                 4.19607       -992.18               
   103 r.107                 1.46585      -999.043               
   104 r.108                 1003.21       -992.18               
   105 r.109                -997.169      -998.908               
   106 r.110                  2.8314      -997.195               
   107 r.111                -998.908      -998.908               
   108 r.112                  1.0917      -997.195               
   109 r.113                       2             2               
   110 r.114                      -2         -1001               
   111 r.115                 -998.26      -998.381               
   112 r.116                    1000             2               
   113 r.117                   -1000         -1001               
   114 r.118                 2001.09      -996.856               
   115 r.119                       2             2               
   116 r.120                      -2         -1001               
   117 r.121                  1.4096      0.979997               
   118 r.122                    1000             2               
   119 r.123                   -1000         -1001               
   120 r.124                    2000       7.78163               
   121 r.125                       2             2               
   122 r.126                      -2         -1001               
   123 r.127                 2.36627      0.956678               
   124 r.128                    1000             2               
   125 r.129                   -1000         -1001               
   126 r.130                 2001.62       7.81984               
   127 r.131                       2             2               
   128 r.132                      -2         -1001               
   129 r.133                -997.513      -999.879               
   130 r.134                    1000             2               
   131 r.135                   -1000         -1001               
   132 r.136                 2001.62      -998.328               
   133 r.137                       2             2               
   134 r.138                      -2         -1001               
   135 r.139                 -999.57       -999.57               
   136 r.140                    1000             2               
   137 r.141                   -1000         -1001               
   138 r.142                    2000       -995.92               
   139 r.143                 -999.91       -999.91               
   140 r.144                 2.57697      -998.807               
   141 r.145               -0.900425       -999.91               
   142 r.146                 1001.59      -998.807               
   143 r.147                -994.802      -998.908               
   144 r.148                 5.19767      -997.195               
   145 r.149                -997.289      -998.908               
   146 r.150                  2.7108      -997.195               
   147 r.151                -995.894      -998.381               
   148 r.152                 5.19767      -996.856               
   149 r.153                -998.381      -998.381               
   150 r.154                  2.7108      -996.856               
   151 r.155                       2             2               
   152 r.156                      -2         -1001               
   153 r.157                 998.923      0.979997               
   154 r.158                    1000             2               
   155 r.159                   -1000         -1001               
   156 r.160                 1998.38       7.78163               
   157 r.161                       2             2               
   158 r.162                      -2         -1001               
   159 r.163                 999.879      0.956678               
   160 r.164                    1000             2               
   161 r.165                   -1000         -1001               
   162 r.166                    2000       7.81984               
   163 r.167                       2             2               
   164 r.168                      -2         -1001               
   165 r.169                 997.513        0.0901               
   166 r.170                    1000             2               
   167 r.171                   -1000         -1001               
   168 r.172                 1998.38       1.19301               
   169 r.173                       2             2               
   170 r.174                      -2         -1001               
   171 r.175                -2.05727       -999.57               
   172 r.176                    1000             2               
   173 r.177                   -1000         -1001               
   174 r.178                 1998.38       -995.92               
   175 r.179                -997.423      -999.879               
   176 r.180                 4.19607      -998.328               
   177 r.181                 1.58645      -999.879               
   178 r.182                 1003.21      -998.328               
   179 r.183                -997.289      -998.908               
   180 r.184                  2.7108      -997.195               
   181 r.185                -998.908      -998.908               
   182 r.186                  1.0917      -997.195               
   183 r.187                       2             2               
   184 r.188                      -2         -1001               
   185 r.189                -998.381      -998.381               
   186 r.190                    1000             2               
   187 r.191                   -1000         -1001               
   188 r.192                 2001.09      -996.856               
   189 r.193                       2             2               
   190 r.194                      -2         -1001               
   191 r.195                0.979997      0.979997               
   192 r.196                    1000             2               
   193 r.197                   -1000         -1001               
   194 r.198                    2000       7.78163               
   195 r.199                       2             2               
   196 r.200                      -2         -1001               
   197 r.201                 1.93667      0.956678               
   198 r.202                    1000             2               
   199 r.203                   -1000         -1001               
   200 r.204                 2001.62       7.81984               
   201 r.205                       2             2               
   202 r.206                      -2         -1001               
   203 r.207                  999.57        0.0901               
   204 r.208                    1000             2               
   205 r.209                   -1000         -1001               
   206 r.210                    2000       1.19301               
   207 r.211                       2             2               
   208 r.212                      -2         -1001               
   209 r.213                 2.05727        0.1206               
   210 r.214                    1000             2               
   211 r.215                   -1000         -1001               
   212 r.216                 2001.62       1.67178               
   213 r.217                 -999.48       -999.57               
   214 r.218                 2.57697       -995.92               
   215 r.219               -0.470825       -999.57               
   216 r.220                 1001.59       -995.92               
   217 r.221                       2             2               
   218 r.222                      -2         -1001               
   219 r.223                -995.232      -998.908               
   220 r.224                    1000             2               
   221 r.225                   -1000         -1001               
   222 r.226                 2002.71      -997.195               
   223 r.227                -996.324      -998.381               
   224 r.228                 4.76807      -996.856               
   225 r.229                -998.381      -998.381               
   226 r.230                  2.7108      -996.856               
   227 r.231                -994.712      -998.908               
   228 r.232                 5.28777      -997.195               
   229 r.233                 4.29725      -998.908               
   230 r.234                  1004.3      -997.195               
   231 r.235                       2             2               
   232 r.236                      -2         -1001               
   233 r.237                 995.232        0.4296               
   234 r.238                    1000             2               
   235 r.239                   -1000         -1001               
   236 r.240                 1997.29       4.07984               
   237 r.241                       2             2               
   238 r.242                      -2         -1001               
   239 r.243                 -1.0917      -998.381               
   240 r.244                    1000             2               
   241 r.245                   -1000         -1001               
   242 r.246                    2000      -996.856               
   243 r.247                       2             2               
   244 r.248                      -2         -1001               
   245 r.249                  998.26      0.956678               
   246 r.250                    1000             2               
   247 r.251                   -1000         -1001               
   248 r.252                 1998.91       7.81984               
   249 r.253                       2             2               
   250 r.254                      -2         -1001               
   251 r.255                 998.381        0.1206               
   252 r.256                    1000             2               
   253 r.257                   -1000         -1001               
   254 r.258                 1998.91       1.67178               
   255 r.259                       2             2               
   256 r.260                      -2         -1001               
   257 r.261                  1.0917        1.0917               
   258 r.262                    1000             2               
   259 r.263                   -1000         -1001               
   260 r.264                    2000       2.80517               

   No. Column name       Activity     Lower bound   Upper bound
------ ------------    ------------- ------------- -------------
     1 tt                    5.36287             0               
     2 s_1_1        *              1             0             1 
     3 t_1_1                 3.78808             0               
     4 s_1_8        *              1             0             1 
     5 s_1_7        *              1             0             1 
     6 s_2_1        *              0             0             1 
     7 t_2_1                  2.7108             0               
     8 s_2_8        *              0             0             1 
     9 s_2_7        *              0             0             1 
    10 s_1_2        *              1             0             1 
    11 t_1_2                  2.8314             0               
    12 s_2_2        *              0             0             1 
    13 t_2_2                  1.0917             0               
    14 s_1_3        *              1             0             1 
    15 t_1_3                 5.19767             0               
    16 s_2_3        *              0             0             1 
    17 t_2_3                  2.7108             0               
    18 s_1_4        *              1             0             1 
    19 t_1_4                  2.7108             0               
    20 s_2_4        *              0             0             1 
    21 t_2_4                  1.0917             0               
    22 s_1_5        *              1             0             1 
    23 t_1_5                 4.76807             0               
    24 s_2_5        *              0             0             1 
    25 t_2_5                  2.7108             0               
    26 s_1_6        *              1             0             1 
    27 t_1_6                 5.28777             0               
    28 s_2_6        *              0             0             1 
    29 t_2_6                  1004.3             0               
    30 t_1_7                       0             0               
    31 t_2_7                       0             0               
    32 t_1_8                  1.0917             0               
    33 t_2_8                       0             0               
    34 r_1_1_2      *              0             0             1 
    35 u_1_1_2      *              1             0             1 
    36 r_2_1_2      *              1             0             1 
    37 u_2_1_2      *              0             0             1 
    38 r_1_1_3      *              0             0             1 
    39 u_1_1_3      *              0             0             1 
    40 r_2_1_3      *              1             0             1 
    41 u_2_1_3      *              0             0             1 
    42 r_1_1_4      *              0             0             1 
    43 u_1_1_4      *              1             0             1 
    44 r_2_1_4      *              1             0             1 
    45 u_2_1_4      *              0             0             1 
    46 r_1_1_5      *              0             0             1 
    47 u_1_1_5      *              0             0             1 
    48 r_2_1_5      *              1             0             1 
    49 u_2_1_5      *              0             0             1 
    50 r_1_2_3      *              0             0             1 
    51 u_1_2_3      *              0             0             1 
    52 r_2_2_3      *              1             0             1 
    53 u_2_2_3      *              0             0             1 
    54 r_1_2_4      *              0             0             1 
    55 u_1_2_4      *              1             0             1 
    56 r_2_2_4      *              1             0             1 
    57 u_2_2_4      *              0             0             1 
    58 r_1_2_5      *              0             0             1 
    59 u_1_2_5      *              0             0             1 
    60 r_2_2_5      *              1             0             1 
    61 u_2_2_5      *              0             0             1 
    62 r_1_2_8      *              0             0             1 
    63 u_1_2_8      *              1             0             1 
    64 r_2_2_8      *              1             0             1 
    65 u_2_2_8      *              0             0             1 
    66 r_1_3_4      *              0             0             1 
    67 u_1_3_4      *              1             0             1 
    68 r_2_3_4      *              1             0             1 
    69 u_2_3_4      *              0             0             1 
    70 r_1_3_5      *              0             0             1 
    71 u_1_3_5      *              1             0             1 
    72 r_2_3_5      *              1             0             1 
    73 u_2_3_5      *              0             0             1 
    74 r_1_4_5      *              0             0             1 
    75 u_1_4_5      *              0             0             1 
    76 r_2_4_5      *              1             0             1 
    77 u_2_4_5      *              0             0             1 
    78 r_1_4_8      *              0             0             1 
    79 u_1_4_8      *              1             0             1 
    80 r_2_4_8      *              1             0             1 
    81 u_2_4_8      *              0             0             1 
    82 r_1_5_7      *              0             0             1 
    83 u_1_5_7      *              1             0             1 
    84 r_2_5_7      *              1             0             1 
    85 u_2_5_7      *              0             0             1 
    86 r_1_7_8      *              0             0             1 
    87 u_1_7_8      *              0             0             1 
    88 r_2_7_8      *              1             0             1 
    89 u_2_7_8      *              0             0             1 

Integer feasibility conditions:

KKT.PE: max.abs.err = 3.41e-13 on row 22
        max.rel.err = 1.69e-16 on row 22
        High quality

KKT.PB: max.abs.err = 1.14e-13 on row 135
        max.rel.err = 1.14e-16 on row 135
        High quality

End of output
